smt/SHA256_STD_26_FDXOR.smt2
;; SETUP
(set-option :produce-models true)
(set-logic QF_BV)


;; TYPE
(define-sort Word () (_ BitVec 32))


;; FUNCTIONS
(define-fun ch ((e Word) (f Word) (g Word)) Word
	(bvxor (bvand e f) (bvand (bvnot e) g))
)
(define-fun maj ((a Word) (b Word) (c Word)) Word
	(bvxor (bvand a b) (bvand a c) (bvand b c))
)
(define-fun sigma0 ((a Word)) Word
	(bvxor ((_ rotate_right 2) a) ((_ rotate_right 13) a) ((_ rotate_right 22) a))
)
(define-fun sigma1 ((e Word)) Word
	(bvxor ((_ rotate_right 6) e) ((_ rotate_right 11) e) ((_ rotate_right 25) e))
)
(define-fun gamma0 ((x Word)) Word
	(bvxor ((_ rotate_right 7) x) ((_ rotate_right 18) x) (bvlshr x (_ bv3 32)))
)
(define-fun gamma1 ((x Word)) Word
	(bvxor ((_ rotate_right 17) x) ((_ rotate_right 19) x) (bvlshr x (_ bv10 32)))
)
(define-fun t1 ((h Word) (e Word) (f Word) (g Word) (k Word) (w Word)) Word
	(bvadd h (sigma1 e) (ch e f g) k w)
)
(define-fun t2 ((a Word) (b Word) (c Word)) Word
	(bvadd (sigma0 a) (maj a b c))
)
(define-fun expandMessage ((a Word) (b Word) (c Word) (d Word)) Word
	(bvadd a (gamma0 b) c (gamma1 d))
)

;; CONSTANTS
; Define K constant differential
(define-fun delta_k0 () Word #b00000000000000000000000000000000)
(define-fun delta_k1 () Word #b00000000000000000000000000000000)
(define-fun delta_k2 () Word #b00000000000000000000000000000000)
(define-fun delta_k3 () Word #b00000000000000000000000000000000)
(define-fun delta_k4 () Word #b00000000000000000000000000000000)
(define-fun delta_k5 () Word #b00000000000000000000000000000000)
(define-fun delta_k6 () Word #b00000000000000000000000000000000)
(define-fun delta_k7 () Word #b00000000000000000000000000000000)
(define-fun delta_k8 () Word #b00000000000000000000000000000000)
(define-fun delta_k9 () Word #b00000000000000000000000000000000)
(define-fun delta_k10 () Word #b00000000000000000000000000000000)
(define-fun delta_k11 () Word #b00000000000000000000000000000000)
(define-fun delta_k12 () Word #b00000000000000000000000000000000)
(define-fun delta_k13 () Word #b00000000000000000000000000000000)
(define-fun delta_k14 () Word #b00000000000000000000000000000000)
(define-fun delta_k15 () Word #b00000000000000000000000000000000)
(define-fun delta_k16 () Word #b00000000000000000000000000000000)
(define-fun delta_k17 () Word #b00000000000000000000000000000000)
(define-fun delta_k18 () Word #b00000000000000000000000000000000)
(define-fun delta_k19 () Word #b00000000000000000000000000000000)
(define-fun delta_k20 () Word #b00000000000000000000000000000000)
(define-fun delta_k21 () Word #b00000000000000000000000000000000)
(define-fun delta_k22 () Word #b00000000000000000000000000000000)
(define-fun delta_k23 () Word #b00000000000000000000000000000000)
(define-fun delta_k24 () Word #b00000000000000000000000000000000)
(define-fun delta_k25 () Word #b00000000000000000000000000000000)

; Define H constant differential (IV/CV)
(define-fun delta_a0 () Word #b00000000000000000000000000000000)
(define-fun delta_b0 () Word #b00000000000000000000000000000000)
(define-fun delta_c0 () Word #b00000000000000000000000000000000)
(define-fun delta_d0 () Word #b00000000000000000000000000000000)
(define-fun delta_e0 () Word #b00000000000000000000000000000000)
(define-fun delta_f0 () Word #b00000000000000000000000000000000)
(define-fun delta_g0 () Word #b00000000000000000000000000000000)
(define-fun delta_h0 () Word #b00000000000000000000000000000000)


;; MESSAGE EXPANSION
; MESSAGE 0
; Initial state
(declare-fun m0_w0 () Word)
(declare-fun m0_w1 () Word)
(declare-fun m0_w2 () Word)
(declare-fun m0_w3 () Word)
(declare-fun m0_w4 () Word)
(declare-fun m0_w5 () Word)
(declare-fun m0_w6 () Word)
(declare-fun m0_w7 () Word)
(declare-fun m0_w8 () Word)
(declare-fun m0_w9 () Word)
(declare-fun m0_w10 () Word)
(declare-fun m0_w11 () Word)
(declare-fun m0_w12 () Word)
(declare-fun m0_w13 () Word)
(declare-fun m0_w14 () Word)
(declare-fun m0_w15 () Word)

; Message expansion
(define-fun m0_w16 () Word (expandMessage m0_w0 m0_w1 m0_w9 m0_w14))
(define-fun m0_w17 () Word (expandMessage m0_w1 m0_w2 m0_w10 m0_w15))
(define-fun m0_w18 () Word (expandMessage m0_w2 m0_w3 m0_w11 m0_w16))
(define-fun m0_w19 () Word (expandMessage m0_w3 m0_w4 m0_w12 m0_w17))
(define-fun m0_w20 () Word (expandMessage m0_w4 m0_w5 m0_w13 m0_w18))
(define-fun m0_w21 () Word (expandMessage m0_w5 m0_w6 m0_w14 m0_w19))
(define-fun m0_w22 () Word (expandMessage m0_w6 m0_w7 m0_w15 m0_w20))
(define-fun m0_w23 () Word (expandMessage m0_w7 m0_w8 m0_w16 m0_w21))
(define-fun m0_w24 () Word (expandMessage m0_w8 m0_w9 m0_w17 m0_w22))
(define-fun m0_w25 () Word (expandMessage m0_w9 m0_w10 m0_w18 m0_w23))

; Message Differential (W)
(declare-fun delta_w0 () Word)
(declare-fun delta_w1 () Word)
(declare-fun delta_w2 () Word)
(declare-fun delta_w3 () Word)
(declare-fun delta_w4 () Word)
(declare-fun delta_w5 () Word)
(declare-fun delta_w6 () Word)
(declare-fun delta_w7 () Word)
(declare-fun delta_w8 () Word)
(declare-fun delta_w9 () Word)
(declare-fun delta_w10 () Word)
(declare-fun delta_w11 () Word)
(declare-fun delta_w12 () Word)
(declare-fun delta_w13 () Word)
(declare-fun delta_w14 () Word)
(declare-fun delta_w15 () Word)

; MESSAGE 1 (Derived)
(define-fun m1_w0 () Word (bvxor m0_w0 delta_w0))
(define-fun m1_w1 () Word (bvxor m0_w1 delta_w1))
(define-fun m1_w2 () Word (bvxor m0_w2 delta_w2))
(define-fun m1_w3 () Word (bvxor m0_w3 delta_w3))
(define-fun m1_w4 () Word (bvxor m0_w4 delta_w4))
(define-fun m1_w5 () Word (bvxor m0_w5 delta_w5))
(define-fun m1_w6 () Word (bvxor m0_w6 delta_w6))
(define-fun m1_w7 () Word (bvxor m0_w7 delta_w7))
(define-fun m1_w8 () Word (bvxor m0_w8 delta_w8))
(define-fun m1_w9 () Word (bvxor m0_w9 delta_w9))
(define-fun m1_w10 () Word (bvxor m0_w10 delta_w10))
(define-fun m1_w11 () Word (bvxor m0_w11 delta_w11))
(define-fun m1_w12 () Word (bvxor m0_w12 delta_w12))
(define-fun m1_w13 () Word (bvxor m0_w13 delta_w13))
(define-fun m1_w14 () Word (bvxor m0_w14 delta_w14))
(define-fun m1_w15 () Word (bvxor m0_w15 delta_w15))

; Message Expansion Assertions
(define-fun delta_w16 () Word (expandMessage delta_w0 delta_w1 delta_w9 delta_w14))(define-fun delta_w17 () Word (expandMessage delta_w1 delta_w2 delta_w10 delta_w15))(define-fun delta_w18 () Word (expandMessage delta_w2 delta_w3 delta_w11 delta_w16))(define-fun delta_w19 () Word (expandMessage delta_w3 delta_w4 delta_w12 delta_w17))(define-fun delta_w20 () Word (expandMessage delta_w4 delta_w5 delta_w13 delta_w18))(define-fun delta_w21 () Word (expandMessage delta_w5 delta_w6 delta_w14 delta_w19))(define-fun delta_w22 () Word (expandMessage delta_w6 delta_w7 delta_w15 delta_w20))(define-fun delta_w23 () Word (expandMessage delta_w7 delta_w8 delta_w16 delta_w21))(define-fun delta_w24 () Word (expandMessage delta_w8 delta_w9 delta_w17 delta_w22))(define-fun delta_w25 () Word (expandMessage delta_w9 delta_w10 delta_w18 delta_w23))

;; MESSAGE COMPRESSION
(define-fun delta_t1_1 () Word (t1 delta_h0 delta_e0 delta_f0 delta_g0 delta_k0 delta_w0))
(define-fun delta_t2_1 () Word (t2 delta_a0 delta_b0 delta_c0))
(define-fun delta_a1 () Word (bvadd delta_t1_1 delta_t2_1))
(define-fun delta_b1 () Word delta_a0)
(define-fun delta_c1 () Word delta_b0)
(define-fun delta_d1 () Word delta_c0)
(define-fun delta_e1 () Word (bvadd delta_d0 delta_t1_1))
(define-fun delta_f1 () Word delta_e0)
(define-fun delta_g1 () Word delta_f0)
(define-fun delta_h1 () Word delta_g0)
(define-fun delta_t1_2 () Word (t1 delta_h1 delta_e1 delta_f1 delta_g1 delta_k1 delta_w1))
(define-fun delta_t2_2 () Word (t2 delta_a1 delta_b1 delta_c1))
(define-fun delta_a2 () Word (bvadd delta_t1_2 delta_t2_2))
(define-fun delta_b2 () Word delta_a1)
(define-fun delta_c2 () Word delta_b1)
(define-fun delta_d2 () Word delta_c1)
(define-fun delta_e2 () Word (bvadd delta_d1 delta_t1_2))
(define-fun delta_f2 () Word delta_e1)
(define-fun delta_g2 () Word delta_f1)
(define-fun delta_h2 () Word delta_g1)
(define-fun delta_t1_3 () Word (t1 delta_h2 delta_e2 delta_f2 delta_g2 delta_k2 delta_w2))
(define-fun delta_t2_3 () Word (t2 delta_a2 delta_b2 delta_c2))
(define-fun delta_a3 () Word (bvadd delta_t1_3 delta_t2_3))
(define-fun delta_b3 () Word delta_a2)
(define-fun delta_c3 () Word delta_b2)
(define-fun delta_d3 () Word delta_c2)
(define-fun delta_e3 () Word (bvadd delta_d2 delta_t1_3))
(define-fun delta_f3 () Word delta_e2)
(define-fun delta_g3 () Word delta_f2)
(define-fun delta_h3 () Word delta_g2)
(define-fun delta_t1_4 () Word (t1 delta_h3 delta_e3 delta_f3 delta_g3 delta_k3 delta_w3))
(define-fun delta_t2_4 () Word (t2 delta_a3 delta_b3 delta_c3))
(define-fun delta_a4 () Word (bvadd delta_t1_4 delta_t2_4))
(define-fun delta_b4 () Word delta_a3)
(define-fun delta_c4 () Word delta_b3)
(define-fun delta_d4 () Word delta_c3)
(define-fun delta_e4 () Word (bvadd delta_d3 delta_t1_4))
(define-fun delta_f4 () Word delta_e3)
(define-fun delta_g4 () Word delta_f3)
(define-fun delta_h4 () Word delta_g3)
(define-fun delta_t1_5 () Word (t1 delta_h4 delta_e4 delta_f4 delta_g4 delta_k4 delta_w4))
(define-fun delta_t2_5 () Word (t2 delta_a4 delta_b4 delta_c4))
(define-fun delta_a5 () Word (bvadd delta_t1_5 delta_t2_5))
(define-fun delta_b5 () Word delta_a4)
(define-fun delta_c5 () Word delta_b4)
(define-fun delta_d5 () Word delta_c4)
(define-fun delta_e5 () Word (bvadd delta_d4 delta_t1_5))
(define-fun delta_f5 () Word delta_e4)
(define-fun delta_g5 () Word delta_f4)
(define-fun delta_h5 () Word delta_g4)
(define-fun delta_t1_6 () Word (t1 delta_h5 delta_e5 delta_f5 delta_g5 delta_k5 delta_w5))
(define-fun delta_t2_6 () Word (t2 delta_a5 delta_b5 delta_c5))
(define-fun delta_a6 () Word (bvadd delta_t1_6 delta_t2_6))
(define-fun delta_b6 () Word delta_a5)
(define-fun delta_c6 () Word delta_b5)
(define-fun delta_d6 () Word delta_c5)
(define-fun delta_e6 () Word (bvadd delta_d5 delta_t1_6))
(define-fun delta_f6 () Word delta_e5)
(define-fun delta_g6 () Word delta_f5)
(define-fun delta_h6 () Word delta_g5)
(define-fun delta_t1_7 () Word (t1 delta_h6 delta_e6 delta_f6 delta_g6 delta_k6 delta_w6))
(define-fun delta_t2_7 () Word (t2 delta_a6 delta_b6 delta_c6))
(define-fun delta_a7 () Word (bvadd delta_t1_7 delta_t2_7))
(define-fun delta_b7 () Word delta_a6)
(define-fun delta_c7 () Word delta_b6)
(define-fun delta_d7 () Word delta_c6)
(define-fun delta_e7 () Word (bvadd delta_d6 delta_t1_7))
(define-fun delta_f7 () Word delta_e6)
(define-fun delta_g7 () Word delta_f6)
(define-fun delta_h7 () Word delta_g6)
(define-fun delta_t1_8 () Word (t1 delta_h7 delta_e7 delta_f7 delta_g7 delta_k7 delta_w7))
(define-fun delta_t2_8 () Word (t2 delta_a7 delta_b7 delta_c7))
(define-fun delta_a8 () Word (bvadd delta_t1_8 delta_t2_8))
(define-fun delta_b8 () Word delta_a7)
(define-fun delta_c8 () Word delta_b7)
(define-fun delta_d8 () Word delta_c7)
(define-fun delta_e8 () Word (bvadd delta_d7 delta_t1_8))
(define-fun delta_f8 () Word delta_e7)
(define-fun delta_g8 () Word delta_f7)
(define-fun delta_h8 () Word delta_g7)
(define-fun delta_t1_9 () Word (t1 delta_h8 delta_e8 delta_f8 delta_g8 delta_k8 delta_w8))
(define-fun delta_t2_9 () Word (t2 delta_a8 delta_b8 delta_c8))
(define-fun delta_a9 () Word (bvadd delta_t1_9 delta_t2_9))
(define-fun delta_b9 () Word delta_a8)
(define-fun delta_c9 () Word delta_b8)
(define-fun delta_d9 () Word delta_c8)
(define-fun delta_e9 () Word (bvadd delta_d8 delta_t1_9))
(define-fun delta_f9 () Word delta_e8)
(define-fun delta_g9 () Word delta_f8)
(define-fun delta_h9 () Word delta_g8)
(define-fun delta_t1_10 () Word (t1 delta_h9 delta_e9 delta_f9 delta_g9 delta_k9 delta_w9))
(define-fun delta_t2_10 () Word (t2 delta_a9 delta_b9 delta_c9))
(define-fun delta_a10 () Word (bvadd delta_t1_10 delta_t2_10))
(define-fun delta_b10 () Word delta_a9)
(define-fun delta_c10 () Word delta_b9)
(define-fun delta_d10 () Word delta_c9)
(define-fun delta_e10 () Word (bvadd delta_d9 delta_t1_10))
(define-fun delta_f10 () Word delta_e9)
(define-fun delta_g10 () Word delta_f9)
(define-fun delta_h10 () Word delta_g9)
(define-fun delta_t1_11 () Word (t1 delta_h10 delta_e10 delta_f10 delta_g10 delta_k10 delta_w10))
(define-fun delta_t2_11 () Word (t2 delta_a10 delta_b10 delta_c10))
(define-fun delta_a11 () Word (bvadd delta_t1_11 delta_t2_11))
(define-fun delta_b11 () Word delta_a10)
(define-fun delta_c11 () Word delta_b10)
(define-fun delta_d11 () Word delta_c10)
(define-fun delta_e11 () Word (bvadd delta_d10 delta_t1_11))
(define-fun delta_f11 () Word delta_e10)
(define-fun delta_g11 () Word delta_f10)
(define-fun delta_h11 () Word delta_g10)
(define-fun delta_t1_12 () Word (t1 delta_h11 delta_e11 delta_f11 delta_g11 delta_k11 delta_w11))
(define-fun delta_t2_12 () Word (t2 delta_a11 delta_b11 delta_c11))
(define-fun delta_a12 () Word (bvadd delta_t1_12 delta_t2_12))
(define-fun delta_b12 () Word delta_a11)
(define-fun delta_c12 () Word delta_b11)
(define-fun delta_d12 () Word delta_c11)
(define-fun delta_e12 () Word (bvadd delta_d11 delta_t1_12))
(define-fun delta_f12 () Word delta_e11)
(define-fun delta_g12 () Word delta_f11)
(define-fun delta_h12 () Word delta_g11)
(define-fun delta_t1_13 () Word (t1 delta_h12 delta_e12 delta_f12 delta_g12 delta_k12 delta_w12))
(define-fun delta_t2_13 () Word (t2 delta_a12 delta_b12 delta_c12))
(define-fun delta_a13 () Word (bvadd delta_t1_13 delta_t2_13))
(define-fun delta_b13 () Word delta_a12)
(define-fun delta_c13 () Word delta_b12)
(define-fun delta_d13 () Word delta_c12)
(define-fun delta_e13 () Word (bvadd delta_d12 delta_t1_13))
(define-fun delta_f13 () Word delta_e12)
(define-fun delta_g13 () Word delta_f12)
(define-fun delta_h13 () Word delta_g12)
(define-fun delta_t1_14 () Word (t1 delta_h13 delta_e13 delta_f13 delta_g13 delta_k13 delta_w13))
(define-fun delta_t2_14 () Word (t2 delta_a13 delta_b13 delta_c13))
(define-fun delta_a14 () Word (bvadd delta_t1_14 delta_t2_14))
(define-fun delta_b14 () Word delta_a13)
(define-fun delta_c14 () Word delta_b13)
(define-fun delta_d14 () Word delta_c13)
(define-fun delta_e14 () Word (bvadd delta_d13 delta_t1_14))
(define-fun delta_f14 () Word delta_e13)
(define-fun delta_g14 () Word delta_f13)
(define-fun delta_h14 () Word delta_g13)
(define-fun delta_t1_15 () Word (t1 delta_h14 delta_e14 delta_f14 delta_g14 delta_k14 delta_w14))
(define-fun delta_t2_15 () Word (t2 delta_a14 delta_b14 delta_c14))
(define-fun delta_a15 () Word (bvadd delta_t1_15 delta_t2_15))
(define-fun delta_b15 () Word delta_a14)
(define-fun delta_c15 () Word delta_b14)
(define-fun delta_d15 () Word delta_c14)
(define-fun delta_e15 () Word (bvadd delta_d14 delta_t1_15))
(define-fun delta_f15 () Word delta_e14)
(define-fun delta_g15 () Word delta_f14)
(define-fun delta_h15 () Word delta_g14)
(define-fun delta_t1_16 () Word (t1 delta_h15 delta_e15 delta_f15 delta_g15 delta_k15 delta_w15))
(define-fun delta_t2_16 () Word (t2 delta_a15 delta_b15 delta_c15))
(define-fun delta_a16 () Word (bvadd delta_t1_16 delta_t2_16))
(define-fun delta_b16 () Word delta_a15)
(define-fun delta_c16 () Word delta_b15)
(define-fun delta_d16 () Word delta_c15)
(define-fun delta_e16 () Word (bvadd delta_d15 delta_t1_16))
(define-fun delta_f16 () Word delta_e15)
(define-fun delta_g16 () Word delta_f15)
(define-fun delta_h16 () Word delta_g15)
(define-fun delta_t1_17 () Word (t1 delta_h16 delta_e16 delta_f16 delta_g16 delta_k16 delta_w16))
(define-fun delta_t2_17 () Word (t2 delta_a16 delta_b16 delta_c16))
(define-fun delta_a17 () Word (bvadd delta_t1_17 delta_t2_17))
(define-fun delta_b17 () Word delta_a16)
(define-fun delta_c17 () Word delta_b16)
(define-fun delta_d17 () Word delta_c16)
(define-fun delta_e17 () Word (bvadd delta_d16 delta_t1_17))
(define-fun delta_f17 () Word delta_e16)
(define-fun delta_g17 () Word delta_f16)
(define-fun delta_h17 () Word delta_g16)
(define-fun delta_t1_18 () Word (t1 delta_h17 delta_e17 delta_f17 delta_g17 delta_k17 delta_w17))
(define-fun delta_t2_18 () Word (t2 delta_a17 delta_b17 delta_c17))
(define-fun delta_a18 () Word (bvadd delta_t1_18 delta_t2_18))
(define-fun delta_b18 () Word delta_a17)
(define-fun delta_c18 () Word delta_b17)
(define-fun delta_d18 () Word delta_c17)
(define-fun delta_e18 () Word (bvadd delta_d17 delta_t1_18))
(define-fun delta_f18 () Word delta_e17)
(define-fun delta_g18 () Word delta_f17)
(define-fun delta_h18 () Word delta_g17)
(define-fun delta_t1_19 () Word (t1 delta_h18 delta_e18 delta_f18 delta_g18 delta_k18 delta_w18))
(define-fun delta_t2_19 () Word (t2 delta_a18 delta_b18 delta_c18))
(define-fun delta_a19 () Word (bvadd delta_t1_19 delta_t2_19))
(define-fun delta_b19 () Word delta_a18)
(define-fun delta_c19 () Word delta_b18)
(define-fun delta_d19 () Word delta_c18)
(define-fun delta_e19 () Word (bvadd delta_d18 delta_t1_19))
(define-fun delta_f19 () Word delta_e18)
(define-fun delta_g19 () Word delta_f18)
(define-fun delta_h19 () Word delta_g18)
(define-fun delta_t1_20 () Word (t1 delta_h19 delta_e19 delta_f19 delta_g19 delta_k19 delta_w19))
(define-fun delta_t2_20 () Word (t2 delta_a19 delta_b19 delta_c19))
(define-fun delta_a20 () Word (bvadd delta_t1_20 delta_t2_20))
(define-fun delta_b20 () Word delta_a19)
(define-fun delta_c20 () Word delta_b19)
(define-fun delta_d20 () Word delta_c19)
(define-fun delta_e20 () Word (bvadd delta_d19 delta_t1_20))
(define-fun delta_f20 () Word delta_e19)
(define-fun delta_g20 () Word delta_f19)
(define-fun delta_h20 () Word delta_g19)
(define-fun delta_t1_21 () Word (t1 delta_h20 delta_e20 delta_f20 delta_g20 delta_k20 delta_w20))
(define-fun delta_t2_21 () Word (t2 delta_a20 delta_b20 delta_c20))
(define-fun delta_a21 () Word (bvadd delta_t1_21 delta_t2_21))
(define-fun delta_b21 () Word delta_a20)
(define-fun delta_c21 () Word delta_b20)
(define-fun delta_d21 () Word delta_c20)
(define-fun delta_e21 () Word (bvadd delta_d20 delta_t1_21))
(define-fun delta_f21 () Word delta_e20)
(define-fun delta_g21 () Word delta_f20)
(define-fun delta_h21 () Word delta_g20)
(define-fun delta_t1_22 () Word (t1 delta_h21 delta_e21 delta_f21 delta_g21 delta_k21 delta_w21))
(define-fun delta_t2_22 () Word (t2 delta_a21 delta_b21 delta_c21))
(define-fun delta_a22 () Word (bvadd delta_t1_22 delta_t2_22))
(define-fun delta_b22 () Word delta_a21)
(define-fun delta_c22 () Word delta_b21)
(define-fun delta_d22 () Word delta_c21)
(define-fun delta_e22 () Word (bvadd delta_d21 delta_t1_22))
(define-fun delta_f22 () Word delta_e21)
(define-fun delta_g22 () Word delta_f21)
(define-fun delta_h22 () Word delta_g21)
(define-fun delta_t1_23 () Word (t1 delta_h22 delta_e22 delta_f22 delta_g22 delta_k22 delta_w22))
(define-fun delta_t2_23 () Word (t2 delta_a22 delta_b22 delta_c22))
(define-fun delta_a23 () Word (bvadd delta_t1_23 delta_t2_23))
(define-fun delta_b23 () Word delta_a22)
(define-fun delta_c23 () Word delta_b22)
(define-fun delta_d23 () Word delta_c22)
(define-fun delta_e23 () Word (bvadd delta_d22 delta_t1_23))
(define-fun delta_f23 () Word delta_e22)
(define-fun delta_g23 () Word delta_f22)
(define-fun delta_h23 () Word delta_g22)
(define-fun delta_t1_24 () Word (t1 delta_h23 delta_e23 delta_f23 delta_g23 delta_k23 delta_w23))
(define-fun delta_t2_24 () Word (t2 delta_a23 delta_b23 delta_c23))
(define-fun delta_a24 () Word (bvadd delta_t1_24 delta_t2_24))
(define-fun delta_b24 () Word delta_a23)
(define-fun delta_c24 () Word delta_b23)
(define-fun delta_d24 () Word delta_c23)
(define-fun delta_e24 () Word (bvadd delta_d23 delta_t1_24))
(define-fun delta_f24 () Word delta_e23)
(define-fun delta_g24 () Word delta_f23)
(define-fun delta_h24 () Word delta_g23)
(define-fun delta_t1_25 () Word (t1 delta_h24 delta_e24 delta_f24 delta_g24 delta_k24 delta_w24))
(define-fun delta_t2_25 () Word (t2 delta_a24 delta_b24 delta_c24))
(define-fun delta_a25 () Word (bvadd delta_t1_25 delta_t2_25))
(define-fun delta_b25 () Word delta_a24)
(define-fun delta_c25 () Word delta_b24)
(define-fun delta_d25 () Word delta_c24)
(define-fun delta_e25 () Word (bvadd delta_d24 delta_t1_25))
(define-fun delta_f25 () Word delta_e24)
(define-fun delta_g25 () Word delta_f24)
(define-fun delta_h25 () Word delta_g24)
(define-fun delta_t1_26 () Word (t1 delta_h25 delta_e25 delta_f25 delta_g25 delta_k25 delta_w25))
(define-fun delta_t2_26 () Word (t2 delta_a25 delta_b25 delta_c25))
(define-fun delta_a26 () Word (bvadd delta_t1_26 delta_t2_26))
(define-fun delta_b26 () Word delta_a25)
(define-fun delta_c26 () Word delta_b25)
(define-fun delta_d26 () Word delta_c25)
(define-fun delta_e26 () Word (bvadd delta_d25 delta_t1_26))
(define-fun delta_f26 () Word delta_e25)
(define-fun delta_g26 () Word delta_f25)
(define-fun delta_h26 () Word delta_g25)

; Final state difference
(define-fun delta_hash0 () Word (bvadd delta_a0 delta_a26))
(define-fun delta_hash1 () Word (bvadd delta_b0 delta_b26))
(define-fun delta_hash2 () Word (bvadd delta_c0 delta_c26))
(define-fun delta_hash3 () Word (bvadd delta_d0 delta_d26))
(define-fun delta_hash4 () Word (bvadd delta_e0 delta_e26))
(define-fun delta_hash5 () Word (bvadd delta_f0 delta_f26))
(define-fun delta_hash6 () Word (bvadd delta_g0 delta_g26))
(define-fun delta_hash7 () Word (bvadd delta_h0 delta_h26))


;; ASSERTIONS
; Assert messages not the same
(assert (or
	(distinct delta_w0 #b00000000000000000000000000000000)
	(distinct delta_w1 #b00000000000000000000000000000000)
	(distinct delta_w2 #b00000000000000000000000000000000)
	(distinct delta_w3 #b00000000000000000000000000000000)
	(distinct delta_w4 #b00000000000000000000000000000000)
	(distinct delta_w5 #b00000000000000000000000000000000)
	(distinct delta_w6 #b00000000000000000000000000000000)
	(distinct delta_w7 #b00000000000000000000000000000000)
	(distinct delta_w8 #b00000000000000000000000000000000)
	(distinct delta_w9 #b00000000000000000000000000000000)
	(distinct delta_w10 #b00000000000000000000000000000000)
	(distinct delta_w11 #b00000000000000000000000000000000)
	(distinct delta_w12 #b00000000000000000000000000000000)
	(distinct delta_w13 #b00000000000000000000000000000000)
	(distinct delta_w14 #b00000000000000000000000000000000)
	(distinct delta_w15 #b00000000000000000000000000000000)
))

; Assert difference in output hash is none
(assert (and
	(= delta_hash0 #b00000000000000000000000000000000)
	(= delta_hash1 #b00000000000000000000000000000000)
	(= delta_hash2 #b00000000000000000000000000000000)
	(= delta_hash3 #b00000000000000000000000000000000)
	(= delta_hash4 #b00000000000000000000000000000000)
	(= delta_hash5 #b00000000000000000000000000000000)
	(= delta_hash6 #b00000000000000000000000000000000)
	(= delta_hash7 #b00000000000000000000000000000000)
))


;; GO!
(check-sat)


;; GET OUTPUT
; Input message
(get-value (m0_w0 m1_w0 m0_w1 m1_w1 m0_w2 m1_w2 m0_w3 m1_w3 m0_w4 m1_w4 m0_w5 m1_w5 m0_w6 m1_w6 m0_w7 m1_w7))

; Output round A/E/W state changes
(get-value (delta_a0 delta_e0 delta_w0 delta_a1 delta_e1 delta_w1 delta_a2 delta_e2 delta_w2 delta_a3 delta_e3 delta_w3 delta_a4 delta_e4 delta_w4 delta_a5 delta_e5 delta_w5 delta_a6 delta_e6 delta_w6 delta_a7 delta_e7 delta_w7 delta_a8 delta_e8 delta_w8 delta_a9 delta_e9 delta_w9 delta_a10 delta_e10 delta_w10 delta_a11 delta_e11 delta_w11 delta_a12 delta_e12 delta_w12 delta_a13 delta_e13 delta_w13 delta_a14 delta_e14 delta_w14 delta_a15 delta_e15 delta_w15 delta_a16 delta_e16 delta_w16 delta_a17 delta_e17 delta_w17 delta_a18 delta_e18 delta_w18 delta_a19 delta_e19 delta_w19 delta_a20 delta_e20 delta_w20 delta_a21 delta_e21 delta_w21 delta_a22 delta_e22 delta_w22 delta_a23 delta_e23 delta_w23 delta_a24 delta_e24 delta_w24 delta_a25 delta_e25 delta_w25))
